p cnf 969 2490
51 -2 -1 0
-51 2 0
-51 1 0
52 -51 -3 0
-52 51 0
-52 3 0
53 -5 -4 0
-53 5 0
-53 4 0
54 -53 -702 0
-54 53 0
-54 702 0
55 -703 -704 0
-55 703 0
-55 704 0
56 -8 -705 0
-56 8 0
-56 705 0
57 -56 -706 0
-57 56 0
-57 706 0
58 -707 -55 0
-58 707 0
-58 55 0
59 -10 -1 0
-59 10 0
-59 1 0
60 -59 -11 0
-60 59 0
-60 11 0
61 -708 -58 0
-61 708 0
-61 58 0
62 -709 -710 0
-62 709 0
-62 710 0
63 -62 -711 0
-63 62 0
-63 711 0
64 -712 -61 0
-64 712 0
-64 61 0
65 -15 -14 0
-65 15 0
-65 14 0
66 -65 -11 0
-66 65 0
-66 11 0
67 -713 -64 0
-67 713 0
-67 64 0
68 -17 -16 0
-68 17 0
-68 16 0
69 -68 -18 0
-69 68 0
-69 18 0
70 -714 -67 0
-70 714 0
-70 67 0
71 -20 -715 0
-71 20 0
-71 715 0
72 -71 -716 0
-72 71 0
-72 716 0
73 -717 -70 0
-73 717 0
-73 70 0
74 -22 -16 0
-74 22 0
-74 16 0
75 -74 -2 0
-75 74 0
-75 2 0
76 -718 -73 0
-76 718 0
-76 73 0
77 -24 -23 0
-77 24 0
-77 23 0
78 -77 -719 0
-78 77 0
-78 719 0
79 -720 -76 0
-79 720 0
-79 76 0
80 -721 -722 0
-80 721 0
-80 722 0
81 -80 -723 0
-81 80 0
-81 723 0
82 -724 -79 0
-82 724 0
-82 79 0
83 -725 -27 0
-83 725 0
-83 27 0
84 -83 -706 0
-84 83 0
-84 706 0
85 -726 -82 0
-85 726 0
-85 82 0
86 -29 -8 0
-86 29 0
-86 8 0
87 -86 -30 0
-87 86 0
-87 30 0
88 -727 -85 0
-88 727 0
-88 85 0
89 -14 -1 0
-89 14 0
-89 1 0
90 -89 -21 0
-90 89 0
-90 21 0
91 -728 -88 0
-91 728 0
-91 88 0
92 -729 -31 0
-92 729 0
-92 31 0
93 -92 -722 0
-93 92 0
-93 722 0
94 -730 -91 0
-94 730 0
-94 91 0
95 -723 -7 0
-95 723 0
-95 7 0
96 -95 -731 0
-96 95 0
-96 731 0
97 -732 -94 0
-97 732 0
-97 94 0
98 -733 -705 0
-98 733 0
-98 705 0
99 -98 -32 0
-99 98 0
-99 32 0
100 -734 -97 0
-100 734 0
-100 97 0
101 -17 -735 0
-101 17 0
-101 735 0
102 -101 -709 0
-102 101 0
-102 709 0
103 -736 -100 0
-103 736 0
-103 100 0
104 -34 -706 0
-104 34 0
-104 706 0
105 -104 -5 0
-105 104 0
-105 5 0
106 -737 -103 0
-106 737 0
-106 103 0
107 -738 -35 0
-107 738 0
-107 35 0
108 -107 -739 0
-108 107 0
-108 739 0
109 -740 -106 0
-109 740 0
-109 106 0
110 -738 -22 0
-110 738 0
-110 22 0
111 -110 -739 0
-111 110 0
-111 739 0
112 -741 -109 0
-112 741 0
-112 109 0
113 -742 -2 0
-113 742 0
-113 2 0
114 -113 -711 0
-114 113 0
-114 711 0
115 -743 -112 0
-115 743 0
-115 112 0
116 -744 -20 0
-116 744 0
-116 20 0
117 -116 -719 0
-117 116 0
-117 719 0
118 -745 -115 0
-118 745 0
-118 115 0
119 -38 -739 0
-119 38 0
-119 739 0
120 -119 -746 0
-120 119 0
-120 746 0
121 -747 -118 0
-121 747 0
-121 118 0
122 -40 -20 0
-122 40 0
-122 20 0
123 -122 -702 0
-123 122 0
-123 702 0
124 -748 -121 0
-124 748 0
-124 121 0
125 -38 -711 0
-125 38 0
-125 711 0
126 -125 -749 0
-126 125 0
-126 749 0
127 -750 -124 0
-127 750 0
-127 124 0
128 -30 -11 0
-128 30 0
-128 11 0
129 -128 -751 0
-129 128 0
-129 751 0
130 -752 -127 0
-130 752 0
-130 127 0
131 -753 -8 0
-131 753 0
-131 8 0
132 -131 -711 0
-132 131 0
-132 711 0
133 -754 -130 0
-133 754 0
-133 130 0
134 -755 -7 0
-134 755 0
-134 7 0
135 -134 -43 0
-135 134 0
-135 43 0
136 -756 -133 0
-136 756 0
-136 133 0
137 -10 -8 0
-137 10 0
-137 8 0
138 -137 -6 0
-138 137 0
-138 6 0
139 -757 -136 0
-139 757 0
-139 136 0
140 -32 -26 0
-140 32 0
-140 26 0
141 -140 -722 0
-141 140 0
-141 722 0
142 -758 -139 0
-142 758 0
-142 139 0
143 -746 -2 0
-143 746 0
-143 2 0
144 -143 -6 0
-144 143 0
-144 6 0
145 -759 -142 0
-145 759 0
-145 142 0
146 -37 -36 0
-146 37 0
-146 36 0
147 -146 -33 0
-147 146 0
-147 33 0
148 -760 -145 0
-148 760 0
-148 145 0
149 -32 -761 0
-149 32 0
-149 761 0
150 -149 -25 0
-150 149 0
-150 25 0
151 -762 -148 0
-151 762 0
-151 148 0
152 -23 -4 0
-152 23 0
-152 4 0
153 -152 -763 0
-153 152 0
-153 763 0
154 -764 -151 0
-154 764 0
-154 151 0
155 -753 -1 0
-155 753 0
-155 1 0
156 -155 -765 0
-156 155 0
-156 765 0
157 -766 -154 0
-157 766 0
-157 154 0
158 -715 -16 0
-158 715 0
-158 16 0
159 -158 -731 0
-159 158 0
-159 731 0
160 -767 -157 0
-160 767 0
-160 157 0
161 -32 -1 0
-161 32 0
-161 1 0
162 -161 -723 0
-162 161 0
-162 723 0
163 -768 -160 0
-163 768 0
-163 160 0
164 -744 -8 0
-164 744 0
-164 8 0
165 -164 -20 0
-165 164 0
-165 20 0
166 -769 -163 0
-166 769 0
-166 163 0
167 -739 -761 0
-167 739 0
-167 761 0
168 -167 -39 0
-168 167 0
-168 39 0
169 -770 -166 0
-169 770 0
-169 166 0
170 -771 -28 0
-170 771 0
-170 28 0
171 -170 -706 0
-171 170 0
-171 706 0
172 -772 -169 0
-172 772 0
-172 169 0
173 -45 -11 0
-173 45 0
-173 11 0
174 -173 -3 0
-174 173 0
-174 3 0
175 -773 -172 0
-175 773 0
-175 172 0
176 -20 -774 0
-176 20 0
-176 774 0
177 -176 -746 0
-177 176 0
-177 746 0
178 -775 -175 0
-178 775 0
-178 175 0
179 -28 -2 0
-179 28 0
-179 2 0
180 -179 -763 0
-180 179 0
-180 763 0
181 -776 -178 0
-181 776 0
-181 178 0
182 -729 -777 0
-182 729 0
-182 777 0
183 -182 -765 0
-183 182 0
-183 765 0
184 -778 -181 0
-184 778 0
-184 181 0
185 -45 -38 0
-185 45 0
-185 38 0
186 -185 -709 0
-186 185 0
-186 709 0
187 -779 -184 0
-187 779 0
-187 184 0
188 -16 -7 0
-188 16 0
-188 7 0
189 -188 -25 0
-189 188 0
-189 25 0
190 -780 -187 0
-190 780 0
-190 187 0
191 -46 -771 0
-191 46 0
-191 771 0
192 -191 -781 0
-192 191 0
-192 781 0
193 -782 -190 0
-193 782 0
-193 190 0
194 -38 -733 0
-194 38 0
-194 733 0
195 -194 -33 0
-195 194 0
-195 33 0
196 -783 -193 0
-196 783 0
-196 193 0
197 -194 -18 0
-197 194 0
-197 18 0
198 -784 -196 0
-198 784 0
-198 196 0
199 -785 -23 0
-199 785 0
-199 23 0
200 -199 -33 0
-200 199 0
-200 33 0
201 -786 -198 0
-201 786 0
-201 198 0
202 -30 -774 0
-202 30 0
-202 774 0
203 -202 -723 0
-203 202 0
-203 723 0
204 -787 -201 0
-204 787 0
-204 201 0
205 -788 -723 0
-205 788 0
-205 723 0
206 -205 -3 0
-206 205 0
-206 3 0
207 -789 -204 0
-207 789 0
-207 204 0
208 -47 -12 0
-208 47 0
-208 12 0
209 -208 -11 0
-209 208 0
-209 11 0
210 -790 -207 0
-210 790 0
-210 207 0
211 -791 -709 0
-211 791 0
-211 709 0
212 -211 -731 0
-212 211 0
-212 731 0
213 -792 -210 0
-213 792 0
-213 210 0
214 -742 -35 0
-214 742 0
-214 35 0
215 -214 -777 0
-215 214 0
-215 777 0
216 -793 -213 0
-216 793 0
-216 213 0
217 -42 -31 0
-217 42 0
-217 31 0
218 -217 -23 0
-218 217 0
-218 23 0
219 -794 -216 0
-219 794 0
-219 216 0
220 -795 -46 0
-220 795 0
-220 46 0
221 -220 -6 0
-221 220 0
-221 6 0
222 -796 -219 0
-222 796 0
-222 219 0
223 -17 -10 0
-223 17 0
-223 10 0
224 -223 -36 0
-224 223 0
-224 36 0
225 -797 -222 0
-225 797 0
-225 222 0
226 -38 -17 0
-226 38 0
-226 17 0
227 -226 -729 0
-227 226 0
-227 729 0
228 -798 -225 0
-228 798 0
-228 225 0
229 -20 -10 0
-229 20 0
-229 10 0
230 -229 -723 0
-230 229 0
-230 723 0
231 -799 -228 0
-231 799 0
-231 228 0
232 -26 -800 0
-232 26 0
-232 800 0
233 -232 -716 0
-233 232 0
-233 716 0
234 -801 -231 0
-234 801 0
-234 231 0
235 -802 -800 0
-235 802 0
-235 800 0
236 -235 -13 0
-236 235 0
-236 13 0
237 -803 -234 0
-237 803 0
-237 234 0
238 -706 -6 0
-238 706 0
-238 6 0
239 -238 -11 0
-239 238 0
-239 11 0
240 -804 -237 0
-240 804 0
-240 237 0
241 -42 -7 0
-241 42 0
-241 7 0
242 -241 -774 0
-242 241 0
-242 774 0
243 -805 -240 0
-243 805 0
-243 240 0
244 -40 -18 0
-244 40 0
-244 18 0
245 -244 -723 0
-245 244 0
-245 723 0
246 -806 -243 0
-246 806 0
-246 243 0
247 -29 -788 0
-247 29 0
-247 788 0
248 -247 -719 0
-248 247 0
-248 719 0
249 -807 -246 0
-249 807 0
-249 246 0
250 -788 -735 0
-250 788 0
-250 735 0
251 -250 -41 0
-251 250 0
-251 41 0
252 -808 -249 0
-252 808 0
-252 249 0
253 -725 -802 0
-253 725 0
-253 802 0
254 -253 -18 0
-254 253 0
-254 18 0
255 -809 -252 0
-255 809 0
-255 252 0
256 -753 -810 0
-256 753 0
-256 810 0
257 -256 -29 0
-257 256 0
-257 29 0
258 -811 -255 0
-258 811 0
-258 255 0
259 -59 -18 0
-259 59 0
-259 18 0
260 -812 -258 0
-260 812 0
-260 258 0
261 -753 -20 0
-261 753 0
-261 20 0
262 -261 -800 0
-262 261 0
-262 800 0
263 -813 -260 0
-263 813 0
-263 260 0
264 -802 -710 0
-264 802 0
-264 710 0
265 -264 -32 0
-265 264 0
-265 32 0
266 -814 -263 0
-266 814 0
-266 263 0
267 -47 -16 0
-267 47 0
-267 16 0
268 -267 -763 0
-268 267 0
-268 763 0
269 -815 -266 0
-269 815 0
-269 266 0
270 -22 -733 0
-270 22 0
-270 733 0
271 -270 -34 0
-271 270 0
-271 34 0
272 -816 -269 0
-272 816 0
-272 269 0
273 -765 -706 0
-273 765 0
-273 706 0
274 -273 -6 0
-274 273 0
-274 6 0
275 -817 -272 0
-275 817 0
-275 272 0
276 -40 -7 0
-276 40 0
-276 7 0
277 -276 -5 0
-277 276 0
-277 5 0
278 -818 -275 0
-278 818 0
-278 275 0
279 -742 -24 0
-279 742 0
-279 24 0
280 -279 -709 0
-280 279 0
-280 709 0
281 -819 -278 0
-281 819 0
-281 278 0
282 -49 -725 0
-282 49 0
-282 725 0
283 -282 -738 0
-283 282 0
-283 738 0
284 -820 -281 0
-284 820 0
-284 281 0
285 -40 -722 0
-285 40 0
-285 722 0
286 -285 -11 0
-286 285 0
-286 11 0
287 -821 -284 0
-287 821 0
-287 284 0
288 -781 -26 0
-288 781 0
-288 26 0
289 -288 -716 0
-289 288 0
-289 716 0
290 -822 -287 0
-290 822 0
-290 287 0
291 -823 -715 0
-291 823 0
-291 715 0
292 -291 -29 0
-292 291 0
-292 29 0
293 -824 -290 0
-293 824 0
-293 290 0
294 -36 -20 0
-294 36 0
-294 20 0
295 -294 -825 0
-295 294 0
-295 825 0
296 -826 -293 0
-296 826 0
-296 293 0
297 -15 -2 0
-297 15 0
-297 2 0
298 -297 -827 0
-298 297 0
-298 827 0
299 -828 -296 0
-299 828 0
-299 296 0
300 -738 -735 0
-300 738 0
-300 735 0
301 -300 -709 0
-301 300 0
-301 709 0
302 -829 -299 0
-302 829 0
-302 299 0
303 -42 -4 0
-303 42 0
-303 4 0
304 -303 -48 0
-304 303 0
-304 48 0
305 -830 -302 0
-305 830 0
-305 302 0
306 -705 -710 0
-306 705 0
-306 710 0
307 -306 -744 0
-307 306 0
-307 744 0
308 -831 -305 0
-308 831 0
-308 305 0
309 -781 -735 0
-309 781 0
-309 735 0
310 -309 -827 0
-310 309 0
-310 827 0
311 -832 -308 0
-311 832 0
-311 308 0
312 -788 -774 0
-312 788 0
-312 774 0
313 -312 -41 0
-313 312 0
-313 41 0
314 -833 -311 0
-314 833 0
-314 311 0
315 -744 -710 0
-315 744 0
-315 710 0
316 -315 -800 0
-316 315 0
-316 800 0
317 -834 -314 0
-317 834 0
-317 314 0
318 -781 -742 0
-318 781 0
-318 742 0
319 -318 -3 0
-319 318 0
-319 3 0
320 -835 -317 0
-320 835 0
-320 317 0
321 -823 -15 0
-321 823 0
-321 15 0
322 -321 -50 0
-322 321 0
-322 50 0
323 -836 -320 0
-323 836 0
-323 320 0
324 -46 -719 0
-324 46 0
-324 719 0
325 -324 -33 0
-325 324 0
-325 33 0
326 -837 -323 0
-326 837 0
-326 323 0
327 -721 -755 0
-327 721 0
-327 755 0
328 -327 -823 0
-328 327 0
-328 823 0
329 -838 -326 0
-329 838 0
-329 326 0
330 -37 -788 0
-330 37 0
-330 788 0
331 -330 -45 0
-331 330 0
-331 45 0
332 -839 -329 0
-332 839 0
-332 329 0
333 -30 -755 0
-333 30 0
-333 755 0
334 -333 -702 0
-334 333 0
-334 702 0
335 -840 -332 0
-335 840 0
-335 332 0
336 -34 -709 0
-336 34 0
-336 709 0
337 -336 -13 0
-337 336 0
-337 13 0
338 -841 -335 0
-338 841 0
-338 335 0
339 -755 -735 0
-339 755 0
-339 735 0
340 -339 -842 0
-340 339 0
-340 842 0
341 -843 -338 0
-341 843 0
-341 338 0
342 -771 -36 0
-342 771 0
-342 36 0
343 -342 -9 0
-343 342 0
-343 9 0
344 -844 -341 0
-344 844 0
-344 341 0
345 -746 -1 0
-345 746 0
-345 1 0
346 -345 -719 0
-346 345 0
-346 719 0
347 -845 -344 0
-347 845 0
-347 344 0
348 -763 -846 0
-348 763 0
-348 846 0
349 -348 -25 0
-349 348 0
-349 25 0
350 -847 -347 0
-350 847 0
-350 347 0
351 -37 -763 0
-351 37 0
-351 763 0
352 -351 -13 0
-352 351 0
-352 13 0
353 -848 -350 0
-353 848 0
-353 350 0
354 -45 -744 0
-354 45 0
-354 744 0
355 -354 -3 0
-355 354 0
-355 3 0
356 -849 -353 0
-356 849 0
-356 353 0
357 -725 -722 0
-357 725 0
-357 722 0
358 -357 -731 0
-358 357 0
-358 731 0
359 -850 -356 0
-359 850 0
-359 356 0
360 -823 -19 0
-360 823 0
-360 19 0
361 -360 -11 0
-361 360 0
-361 11 0
362 -851 -359 0
-362 851 0
-362 359 0
363 -722 -6 0
-363 722 0
-363 6 0
364 -363 -25 0
-364 363 0
-364 25 0
365 -852 -362 0
-365 852 0
-365 362 0
366 -825 -746 0
-366 825 0
-366 746 0
367 -366 -33 0
-367 366 0
-367 33 0
368 -853 -365 0
-368 853 0
-368 365 0
369 -742 -9 0
-369 742 0
-369 9 0
370 -369 -781 0
-370 369 0
-370 781 0
371 -854 -368 0
-371 854 0
-371 368 0
372 -14 -6 0
-372 14 0
-372 6 0
373 -372 -21 0
-373 372 0
-373 21 0
374 -855 -371 0
-374 855 0
-374 371 0
375 -746 -29 0
-375 746 0
-375 29 0
376 -375 -751 0
-376 375 0
-376 751 0
377 -856 -374 0
-377 856 0
-377 374 0
378 -857 -742 0
-378 857 0
-378 742 0
379 -378 -774 0
-379 378 0
-379 774 0
380 -858 -377 0
-380 858 0
-380 377 0
381 -810 -859 0
-381 810 0
-381 859 0
382 -381 -42 0
-382 381 0
-382 42 0
383 -860 -380 0
-383 860 0
-383 380 0
384 -861 -32 0
-384 861 0
-384 32 0
385 -384 -749 0
-385 384 0
-385 749 0
386 -862 -383 0
-386 862 0
-386 383 0
387 -753 -10 0
-387 753 0
-387 10 0
388 -387 -842 0
-388 387 0
-388 842 0
389 -863 -386 0
-389 863 0
-389 386 0
390 -23 -702 0
-390 23 0
-390 702 0
391 -390 -50 0
-391 390 0
-391 50 0
392 -864 -389 0
-392 864 0
-392 389 0
393 -4 -710 0
-393 4 0
-393 710 0
394 -393 -746 0
-394 393 0
-394 746 0
395 -865 -392 0
-395 865 0
-395 392 0
396 -810 -788 0
-396 810 0
-396 788 0
397 -396 -785 0
-397 396 0
-397 785 0
398 -866 -395 0
-398 866 0
-398 395 0
399 -721 -20 0
-399 721 0
-399 20 0
400 -399 -729 0
-400 399 0
-400 729 0
401 -867 -398 0
-401 867 0
-401 398 0
402 -19 -706 0
-402 19 0
-402 706 0
403 -402 -711 0
-403 402 0
-403 711 0
404 -868 -401 0
-404 868 0
-404 401 0
405 -753 -721 0
-405 753 0
-405 721 0
406 -405 -21 0
-406 405 0
-406 21 0
407 -869 -404 0
-407 869 0
-407 404 0
408 -738 -4 0
-408 738 0
-408 4 0
409 -408 -44 0
-409 408 0
-409 44 0
410 -870 -407 0
-410 870 0
-410 407 0
411 -795 -709 0
-411 795 0
-411 709 0
412 -411 -29 0
-412 411 0
-412 29 0
413 -871 -410 0
-413 871 0
-413 410 0
414 -859 -2 0
-414 859 0
-414 2 0
415 -414 -30 0
-415 414 0
-415 30 0
416 -872 -413 0
-416 872 0
-416 413 0
417 -34 -17 0
-417 34 0
-417 17 0
418 -417 -746 0
-418 417 0
-418 746 0
419 -873 -416 0
-419 873 0
-419 416 0
420 -763 -26 0
-420 763 0
-420 26 0
421 -420 -751 0
-421 420 0
-421 751 0
422 -874 -419 0
-422 874 0
-422 419 0
423 -765 -31 0
-423 765 0
-423 31 0
424 -423 -827 0
-424 423 0
-424 827 0
425 -875 -422 0
-425 875 0
-425 422 0
426 -742 -34 0
-426 742 0
-426 34 0
427 -426 -25 0
-427 426 0
-427 25 0
428 -876 -425 0
-428 876 0
-428 425 0
429 -39 -722 0
-429 39 0
-429 722 0
430 -429 -50 0
-430 429 0
-430 50 0
431 -877 -428 0
-431 877 0
-431 428 0
432 -721 -19 0
-432 721 0
-432 19 0
433 -432 -827 0
-433 432 0
-433 827 0
434 -878 -431 0
-434 878 0
-434 431 0
435 -17 -846 0
-435 17 0
-435 846 0
436 -435 -12 0
-436 435 0
-436 12 0
437 -879 -434 0
-437 879 0
-437 434 0
438 -46 -788 0
-438 46 0
-438 788 0
439 -438 -722 0
-439 438 0
-439 722 0
440 -880 -437 0
-440 880 0
-440 437 0
441 -802 -11 0
-441 802 0
-441 11 0
442 -441 -716 0
-442 441 0
-442 716 0
443 -881 -440 0
-443 881 0
-443 440 0
444 -791 -17 0
-444 791 0
-444 17 0
445 -444 -716 0
-445 444 0
-445 716 0
446 -882 -443 0
-446 882 0
-446 443 0
447 -47 -7 0
-447 47 0
-447 7 0
448 -447 -29 0
-448 447 0
-448 29 0
449 -883 -446 0
-449 883 0
-449 446 0
450 -738 -7 0
-450 738 0
-450 7 0
451 -450 -39 0
-451 450 0
-451 39 0
452 -884 -449 0
-452 884 0
-452 449 0
453 -861 -774 0
-453 861 0
-453 774 0
454 -453 -15 0
-454 453 0
-454 15 0
455 -885 -452 0
-455 885 0
-455 452 0
456 -29 -709 0
-456 29 0
-456 709 0
457 -456 -30 0
-457 456 0
-457 30 0
458 -886 -455 0
-458 886 0
-458 455 0
459 -825 -45 0
-459 825 0
-459 45 0
460 -459 -13 0
-460 459 0
-460 13 0
461 -887 -458 0
-461 887 0
-461 458 0
462 -827 -16 0
-462 827 0
-462 16 0
463 -462 -3 0
-463 462 0
-463 3 0
464 -888 -461 0
-464 888 0
-464 461 0
465 -857 -788 0
-465 857 0
-465 788 0
466 -465 -739 0
-466 465 0
-466 739 0
467 -889 -464 0
-467 889 0
-467 464 0
468 -32 -722 0
-468 32 0
-468 722 0
469 -468 -749 0
-469 468 0
-469 749 0
470 -890 -467 0
-470 890 0
-470 467 0
471 -31 -12 0
-471 31 0
-471 12 0
472 -471 -3 0
-472 471 0
-472 3 0
473 -891 -470 0
-473 891 0
-473 470 0
474 -28 -4 0
-474 28 0
-474 4 0
475 -474 -842 0
-475 474 0
-475 842 0
476 -892 -473 0
-476 892 0
-476 473 0
477 -771 -755 0
-477 771 0
-477 755 0
478 -477 -29 0
-478 477 0
-478 29 0
479 -893 -476 0
-479 893 0
-479 476 0
480 -31 -15 0
-480 31 0
-480 15 0
481 -480 -43 0
-481 480 0
-481 43 0
482 -894 -479 0
-482 894 0
-482 479 0
483 -7 -2 0
-483 7 0
-483 2 0
484 -483 -24 0
-484 483 0
-484 24 0
485 -895 -482 0
-485 895 0
-485 482 0
486 -795 -777 0
-486 795 0
-486 777 0
487 -486 -33 0
-487 486 0
-487 33 0
488 -896 -485 0
-488 896 0
-488 485 0
489 -763 -15 0
-489 763 0
-489 15 0
490 -489 -702 0
-490 489 0
-490 702 0
491 -897 -488 0
-491 897 0
-491 488 0
492 -753 -709 0
-492 753 0
-492 709 0
493 -492 -827 0
-493 492 0
-493 827 0
494 -898 -491 0
-494 898 0
-494 491 0
495 -765 -823 0
-495 765 0
-495 823 0
496 -495 -751 0
-496 495 0
-496 751 0
497 -899 -494 0
-497 899 0
-497 494 0
498 -738 -1 0
-498 738 0
-498 1 0
499 -498 -729 0
-499 498 0
-499 729 0
500 -900 -497 0
-500 900 0
-500 497 0
501 -44 -25 0
-501 44 0
-501 25 0
502 -501 -43 0
-502 501 0
-502 43 0
503 -901 -500 0
-503 901 0
-503 500 0
504 -761 -2 0
-504 761 0
-504 2 0
505 -504 -50 0
-505 504 0
-505 50 0
506 -902 -503 0
-506 902 0
-506 503 0
507 -38 -1 0
-507 38 0
-507 1 0
508 -507 -8 0
-508 507 0
-508 8 0
509 -903 -506 0
-509 903 0
-509 506 0
510 -795 -705 0
-510 795 0
-510 705 0
511 -510 -5 0
-511 510 0
-511 5 0
512 -904 -509 0
-512 904 0
-512 509 0
513 -46 -29 0
-513 46 0
-513 29 0
514 -513 -30 0
-514 513 0
-514 30 0
515 -905 -512 0
-515 905 0
-515 512 0
516 -781 -802 0
-516 781 0
-516 802 0
517 -516 -795 0
-517 516 0
-517 795 0
518 -906 -515 0
-518 906 0
-518 515 0
519 -746 -28 0
-519 746 0
-519 28 0
520 -519 -723 0
-520 519 0
-520 723 0
521 -907 -518 0
-521 907 0
-521 518 0
522 -795 -861 0
-522 795 0
-522 861 0
523 -522 -43 0
-523 522 0
-523 43 0
524 -908 -521 0
-524 908 0
-524 521 0
525 -857 -31 0
-525 857 0
-525 31 0
526 -525 -39 0
-526 525 0
-526 39 0
527 -909 -524 0
-527 909 0
-527 524 0
528 -795 -28 0
-528 795 0
-528 28 0
529 -528 -25 0
-529 528 0
-529 25 0
530 -910 -527 0
-530 910 0
-530 527 0
531 -846 -733 0
-531 846 0
-531 733 0
532 -531 -711 0
-532 531 0
-532 711 0
533 -911 -530 0
-533 911 0
-533 530 0
534 -23 -19 0
-534 23 0
-534 19 0
535 -534 -9 0
-535 534 0
-535 9 0
536 -912 -533 0
-536 912 0
-536 533 0
537 -23 -715 0
-537 23 0
-537 715 0
538 -537 -50 0
-538 537 0
-538 50 0
539 -913 -536 0
-539 913 0
-539 536 0
540 -857 -744 0
-540 857 0
-540 744 0
541 -540 -39 0
-541 540 0
-541 39 0
542 -914 -539 0
-542 914 0
-542 539 0
543 -16 -10 0
-543 16 0
-543 10 0
544 -543 -823 0
-544 543 0
-544 823 0
545 -915 -542 0
-545 915 0
-545 542 0
546 -785 -10 0
-546 785 0
-546 10 0
547 -546 -36 0
-547 546 0
-547 36 0
548 -916 -545 0
-548 916 0
-548 545 0
549 -49 -26 0
-549 49 0
-549 26 0
550 -549 -702 0
-550 549 0
-550 702 0
551 -917 -548 0
-551 917 0
-551 548 0
552 -861 -710 0
-552 861 0
-552 710 0
553 -552 -795 0
-553 552 0
-553 795 0
554 -918 -551 0
-554 918 0
-554 551 0
555 -45 -31 0
-555 45 0
-555 31 0
556 -555 -702 0
-556 555 0
-556 702 0
557 -919 -554 0
-557 919 0
-557 554 0
558 -25 -4 0
-558 25 0
-558 4 0
559 -558 -43 0
-559 558 0
-559 43 0
560 -920 -557 0
-560 920 0
-560 557 0
561 -42 -723 0
-561 42 0
-561 723 0
562 -561 -25 0
-562 561 0
-562 25 0
563 -921 -560 0
-563 921 0
-563 560 0
564 -17 -1 0
-564 17 0
-564 1 0
565 -564 -739 0
-565 564 0
-565 739 0
566 -922 -563 0
-566 922 0
-566 563 0
567 -810 -923 0
-567 810 0
-567 923 0
568 -567 -702 0
-568 567 0
-568 702 0
569 -924 -566 0
-569 924 0
-569 566 0
570 -715 -709 0
-570 715 0
-570 709 0
571 -570 -6 0
-571 570 0
-571 6 0
572 -925 -569 0
-572 925 0
-572 569 0
573 -19 -18 0
-573 19 0
-573 18 0
574 -573 -25 0
-574 573 0
-574 25 0
575 -926 -572 0
-575 926 0
-575 572 0
576 -37 -20 0
-576 37 0
-576 20 0
577 -576 -6 0
-577 576 0
-577 6 0
578 -927 -575 0
-578 927 0
-578 575 0
579 -32 -27 0
-579 32 0
-579 27 0
580 -579 -702 0
-580 579 0
-580 702 0
581 -928 -578 0
-581 928 0
-581 578 0
582 -706 -8 0
-582 706 0
-582 8 0
583 -582 -24 0
-583 582 0
-583 24 0
584 -929 -581 0
-584 929 0
-584 581 0
585 -42 -38 0
-585 42 0
-585 38 0
586 -585 -34 0
-586 585 0
-586 34 0
587 -930 -584 0
-587 930 0
-587 584 0
588 -36 -715 0
-588 36 0
-588 715 0
589 -588 -706 0
-589 588 0
-589 706 0
590 -931 -587 0
-590 931 0
-590 587 0
591 -742 -706 0
-591 742 0
-591 706 0
592 -591 -800 0
-592 591 0
-592 800 0
593 -932 -590 0
-593 932 0
-593 590 0
594 -781 -827 0
-594 781 0
-594 827 0
595 -594 -3 0
-595 594 0
-595 3 0
596 -933 -593 0
-596 933 0
-596 593 0
597 -934 -14 0
-597 934 0
-597 14 0
598 -597 -30 0
-598 597 0
-598 30 0
599 -935 -596 0
-599 935 0
-599 596 0
600 -715 -5 0
-600 715 0
-600 5 0
601 -600 -33 0
-601 600 0
-601 33 0
602 -936 -599 0
-602 936 0
-602 599 0
603 -47 -28 0
-603 47 0
-603 28 0
604 -603 -33 0
-604 603 0
-604 33 0
605 -937 -602 0
-605 937 0
-605 602 0
606 -26 -715 0
-606 26 0
-606 715 0
607 -606 -9 0
-607 606 0
-607 9 0
608 -938 -605 0
-608 938 0
-608 605 0
609 -26 -23 0
-609 26 0
-609 23 0
610 -609 -738 0
-610 609 0
-610 738 0
611 -939 -608 0
-611 939 0
-611 608 0
612 -823 -706 0
-612 823 0
-612 706 0
613 -612 -24 0
-613 612 0
-613 24 0
614 -940 -611 0
-614 940 0
-614 611 0
615 -771 -20 0
-615 771 0
-615 20 0
616 -615 -30 0
-616 615 0
-616 30 0
617 -941 -614 0
-617 941 0
-617 614 0
618 -26 -846 0
-618 26 0
-618 846 0
619 -618 -25 0
-619 618 0
-619 25 0
620 -942 -617 0
-620 942 0
-620 617 0
621 -23 -788 0
-621 23 0
-621 788 0
622 -621 -50 0
-622 621 0
-622 50 0
623 -943 -620 0
-623 943 0
-623 620 0
624 -825 -26 0
-624 825 0
-624 26 0
625 -624 -25 0
-625 624 0
-625 25 0
626 -944 -623 0
-626 944 0
-626 623 0
627 -744 -859 0
-627 744 0
-627 859 0
628 -627 -43 0
-628 627 0
-628 43 0
629 -945 -626 0
-629 945 0
-629 626 0
630 -49 -846 0
-630 49 0
-630 846 0
631 -630 -41 0
-631 630 0
-631 41 0
632 -946 -629 0
-632 946 0
-632 629 0
633 -744 -34 0
-633 744 0
-633 34 0
634 -633 -751 0
-634 633 0
-634 751 0
635 -947 -632 0
-635 947 0
-635 632 0
636 -17 -709 0
-636 17 0
-636 709 0
637 -636 -731 0
-637 636 0
-637 731 0
638 -948 -635 0
-638 948 0
-638 635 0
639 -800 -710 0
-639 800 0
-639 710 0
640 -639 -33 0
-640 639 0
-640 33 0
641 -949 -638 0
-641 949 0
-641 638 0
642 -40 -34 0
-642 40 0
-642 34 0
643 -642 -3 0
-643 642 0
-643 3 0
644 -950 -641 0
-644 950 0
-644 641 0
645 -857 -29 0
-645 857 0
-645 29 0
646 -645 -751 0
-646 645 0
-646 751 0
647 -951 -644 0
-647 951 0
-647 644 0
648 -48 -4 0
-648 48 0
-648 4 0
649 -648 -722 0
-649 648 0
-649 722 0
650 -952 -647 0
-650 952 0
-650 647 0
651 -709 -702 0
-651 709 0
-651 702 0
652 -651 -33 0
-652 651 0
-652 33 0
653 -953 -650 0
-653 953 0
-653 650 0
654 -753 -788 0
-654 753 0
-654 788 0
655 -654 -29 0
-655 654 0
-655 29 0
656 -954 -653 0
-656 954 0
-656 653 0
657 -34 -715 0
-657 34 0
-657 715 0
658 -657 -30 0
-658 657 0
-658 30 0
659 -955 -656 0
-659 955 0
-659 656 0
660 -777 -859 0
-660 777 0
-660 859 0
661 -660 -44 0
-661 660 0
-661 44 0
662 -956 -659 0
-662 956 0
-662 659 0
663 -31 -2 0
-663 31 0
-663 2 0
664 -663 -825 0
-664 663 0
-664 825 0
665 -957 -662 0
-665 957 0
-665 662 0
666 -43 -18 0
-666 43 0
-666 18 0
667 -666 -21 0
-667 666 0
-667 21 0
668 -958 -665 0
-668 958 0
-668 665 0
669 -40 -710 0
-669 40 0
-669 710 0
670 -669 -25 0
-670 669 0
-670 25 0
671 -959 -668 0
-671 959 0
-671 668 0
672 -48 -2 0
-672 48 0
-672 2 0
673 -672 -722 0
-673 672 0
-673 722 0
674 -960 -671 0
-674 960 0
-674 671 0
675 -785 -6 0
-675 785 0
-675 6 0
676 -675 -13 0
-676 675 0
-676 13 0
677 -961 -674 0
-677 961 0
-677 674 0
678 -40 -846 0
-678 40 0
-678 846 0
679 -678 -744 0
-679 678 0
-679 744 0
680 -962 -677 0
-680 962 0
-680 677 0
681 -791 -16 0
-681 791 0
-681 16 0
682 -681 -735 0
-682 681 0
-682 735 0
683 -963 -680 0
-683 963 0
-683 680 0
684 -25 -859 0
-684 25 0
-684 859 0
685 -684 -43 0
-685 684 0
-685 43 0
686 -964 -683 0
-686 964 0
-686 683 0
687 -827 -735 0
-687 827 0
-687 735 0
688 -687 -39 0
-688 687 0
-688 39 0
689 -965 -686 0
-689 965 0
-689 686 0
690 -38 -738 0
-690 38 0
-690 738 0
691 -690 -29 0
-691 690 0
-691 29 0
692 -966 -689 0
-692 966 0
-692 689 0
693 -744 -1 0
-693 744 0
-693 1 0
694 -693 -4 0
-694 693 0
-694 4 0
695 -967 -692 0
-695 967 0
-695 692 0
696 -771 -785 0
-696 771 0
-696 785 0
697 -696 -24 0
-697 696 0
-697 24 0
698 -968 -695 0
-698 968 0
-698 695 0
699 -755 -761 0
-699 755 0
-699 761 0
700 -699 -40 0
-700 699 0
-700 40 0
701 -969 -698 0
-701 969 0
-701 698 0
-702 -6 0
702 6 0
-703 -54 0
703 54 0
-704 -52 0
704 52 0
-705 -7 0
705 7 0
-706 -9 0
706 9 0
-707 -57 0
707 57 0
-708 -60 0
708 60 0
-709 -12 0
709 12 0
-710 -1 0
710 1 0
-711 -13 0
711 13 0
-712 -63 0
712 63 0
-713 -66 0
713 66 0
-714 -69 0
714 69 0
-715 -19 0
715 19 0
-716 -21 0
716 21 0
-717 -72 0
717 72 0
-718 -75 0
718 75 0
-719 -25 0
719 25 0
-720 -78 0
720 78 0
-721 -26 0
721 26 0
-722 -18 0
722 18 0
-723 -11 0
723 11 0
-724 -81 0
724 81 0
-725 -28 0
725 28 0
-726 -84 0
726 84 0
-727 -87 0
727 87 0
-728 -90 0
728 90 0
-729 -32 0
729 32 0
-730 -93 0
730 93 0
-731 -33 0
731 33 0
-732 -96 0
732 96 0
-733 -8 0
733 8 0
-734 -99 0
734 99 0
-735 -4 0
735 4 0
-736 -102 0
736 102 0
-737 -105 0
737 105 0
-738 -36 0
738 36 0
-739 -15 0
739 15 0
-740 -108 0
740 108 0
-741 -111 0
741 111 0
-742 -37 0
742 37 0
-743 -114 0
743 114 0
-744 -38 0
744 38 0
-745 -117 0
745 117 0
-746 -39 0
746 39 0
-747 -120 0
747 120 0
-748 -123 0
748 123 0
-749 -3 0
749 3 0
-750 -126 0
750 126 0
-751 -41 0
751 41 0
-752 -129 0
752 129 0
-753 -42 0
753 42 0
-754 -132 0
754 132 0
-755 -23 0
755 23 0
-756 -135 0
756 135 0
-757 -138 0
757 138 0
-758 -141 0
758 141 0
-759 -144 0
759 144 0
-760 -147 0
760 147 0
-761 -14 0
761 14 0
-762 -150 0
762 150 0
-763 -34 0
763 34 0
-764 -153 0
764 153 0
-765 -44 0
765 44 0
-766 -156 0
766 156 0
-767 -159 0
767 159 0
-768 -162 0
768 162 0
-769 -165 0
769 165 0
-770 -168 0
770 168 0
-771 -40 0
771 40 0
-772 -171 0
772 171 0
-773 -174 0
773 174 0
-774 -2 0
774 2 0
-775 -177 0
775 177 0
-776 -180 0
776 180 0
-777 -24 0
777 24 0
-778 -183 0
778 183 0
-779 -186 0
779 186 0
-780 -189 0
780 189 0
-781 -47 0
781 47 0
-782 -192 0
782 192 0
-783 -195 0
783 195 0
-784 -197 0
784 197 0
-785 -27 0
785 27 0
-786 -200 0
786 200 0
-787 -203 0
787 203 0
-788 -17 0
788 17 0
-789 -206 0
789 206 0
-790 -209 0
790 209 0
-791 -35 0
791 35 0
-792 -212 0
792 212 0
-793 -215 0
793 215 0
-794 -218 0
794 218 0
-795 -48 0
795 48 0
-796 -221 0
796 221 0
-797 -224 0
797 224 0
-798 -227 0
798 227 0
-799 -230 0
799 230 0
-800 -5 0
800 5 0
-801 -233 0
801 233 0
-802 -20 0
802 20 0
-803 -236 0
803 236 0
-804 -239 0
804 239 0
-805 -242 0
805 242 0
-806 -245 0
806 245 0
-807 -248 0
807 248 0
-808 -251 0
808 251 0
-809 -254 0
809 254 0
-810 -31 0
810 31 0
-811 -257 0
811 257 0
-812 -259 0
812 259 0
-813 -262 0
813 262 0
-814 -265 0
814 265 0
-815 -268 0
815 268 0
-816 -271 0
816 271 0
-817 -274 0
817 274 0
-818 -277 0
818 277 0
-819 -280 0
819 280 0
-820 -283 0
820 283 0
-821 -286 0
821 286 0
-822 -289 0
822 289 0
-823 -22 0
823 22 0
-824 -292 0
824 292 0
-825 -50 0
825 50 0
-826 -295 0
826 295 0
-827 -29 0
827 29 0
-828 -298 0
828 298 0
-829 -301 0
829 301 0
-830 -304 0
830 304 0
-831 -307 0
831 307 0
-832 -310 0
832 310 0
-833 -313 0
833 313 0
-834 -316 0
834 316 0
-835 -319 0
835 319 0
-836 -322 0
836 322 0
-837 -325 0
837 325 0
-838 -328 0
838 328 0
-839 -331 0
839 331 0
-840 -334 0
840 334 0
-841 -337 0
841 337 0
-842 -43 0
842 43 0
-843 -340 0
843 340 0
-844 -343 0
844 343 0
-845 -346 0
845 346 0
-846 -10 0
846 10 0
-847 -349 0
847 349 0
-848 -352 0
848 352 0
-849 -355 0
849 355 0
-850 -358 0
850 358 0
-851 -361 0
851 361 0
-852 -364 0
852 364 0
-853 -367 0
853 367 0
-854 -370 0
854 370 0
-855 -373 0
855 373 0
-856 -376 0
856 376 0
-857 -49 0
857 49 0
-858 -379 0
858 379 0
-859 -16 0
859 16 0
-860 -382 0
860 382 0
-861 -45 0
861 45 0
-862 -385 0
862 385 0
-863 -388 0
863 388 0
-864 -391 0
864 391 0
-865 -394 0
865 394 0
-866 -397 0
866 397 0
-867 -400 0
867 400 0
-868 -403 0
868 403 0
-869 -406 0
869 406 0
-870 -409 0
870 409 0
-871 -412 0
871 412 0
-872 -415 0
872 415 0
-873 -418 0
873 418 0
-874 -421 0
874 421 0
-875 -424 0
875 424 0
-876 -427 0
876 427 0
-877 -430 0
877 430 0
-878 -433 0
878 433 0
-879 -436 0
879 436 0
-880 -439 0
880 439 0
-881 -442 0
881 442 0
-882 -445 0
882 445 0
-883 -448 0
883 448 0
-884 -451 0
884 451 0
-885 -454 0
885 454 0
-886 -457 0
886 457 0
-887 -460 0
887 460 0
-888 -463 0
888 463 0
-889 -466 0
889 466 0
-890 -469 0
890 469 0
-891 -472 0
891 472 0
-892 -475 0
892 475 0
-893 -478 0
893 478 0
-894 -481 0
894 481 0
-895 -484 0
895 484 0
-896 -487 0
896 487 0
-897 -490 0
897 490 0
-898 -493 0
898 493 0
-899 -496 0
899 496 0
-900 -499 0
900 499 0
-901 -502 0
901 502 0
-902 -505 0
902 505 0
-903 -508 0
903 508 0
-904 -511 0
904 511 0
-905 -514 0
905 514 0
-906 -517 0
906 517 0
-907 -520 0
907 520 0
-908 -523 0
908 523 0
-909 -526 0
909 526 0
-910 -529 0
910 529 0
-911 -532 0
911 532 0
-912 -535 0
912 535 0
-913 -538 0
913 538 0
-914 -541 0
914 541 0
-915 -544 0
915 544 0
-916 -547 0
916 547 0
-917 -550 0
917 550 0
-918 -553 0
918 553 0
-919 -556 0
919 556 0
-920 -559 0
920 559 0
-921 -562 0
921 562 0
-922 -565 0
922 565 0
-923 -30 0
923 30 0
-924 -568 0
924 568 0
-925 -571 0
925 571 0
-926 -574 0
926 574 0
-927 -577 0
927 577 0
-928 -580 0
928 580 0
-929 -583 0
929 583 0
-930 -586 0
930 586 0
-931 -589 0
931 589 0
-932 -592 0
932 592 0
-933 -595 0
933 595 0
-934 -46 0
934 46 0
-935 -598 0
935 598 0
-936 -601 0
936 601 0
-937 -604 0
937 604 0
-938 -607 0
938 607 0
-939 -610 0
939 610 0
-940 -613 0
940 613 0
-941 -616 0
941 616 0
-942 -619 0
942 619 0
-943 -622 0
943 622 0
-944 -625 0
944 625 0
-945 -628 0
945 628 0
-946 -631 0
946 631 0
-947 -634 0
947 634 0
-948 -637 0
948 637 0
-949 -640 0
949 640 0
-950 -643 0
950 643 0
-951 -646 0
951 646 0
-952 -649 0
952 649 0
-953 -652 0
953 652 0
-954 -655 0
954 655 0
-955 -658 0
955 658 0
-956 -661 0
956 661 0
-957 -664 0
957 664 0
-958 -667 0
958 667 0
-959 -670 0
959 670 0
-960 -673 0
960 673 0
-961 -676 0
961 676 0
-962 -679 0
962 679 0
-963 -682 0
963 682 0
-964 -685 0
964 685 0
-965 -688 0
965 688 0
-966 -691 0
966 691 0
-967 -694 0
967 694 0
-968 -697 0
968 697 0
-969 -700 0
969 700 0
701 0
